# Objective value = 4.6525300000000007e+03
I_0_0 1230
I_0_1 1705
I_0_2 1690
I_0_3 1475
I_0_4 1330
I_0_5 1460
I_0_6 1935
I_1_0 78
I_1_1 39
I_1_2 78
I_1_3 39
I_1_4 0
I_1_5 7.7999999999999972e+01
I_1_6 3.8999999999999972e+01
I_2_0 22
I_2_1 11
I_2_2 22
I_2_3 11
I_2_4 0
I_2_5 22
I_2_6 1.1000000000000004e+01
I_3_0 126
I_3_1 63
I_3_2 0
I_3_3 126
I_3_4 126
I_3_5 6.2999999999999986e+01
I_3_6 0
I_4_0 99
I_4_1 0
I_4_2 99
I_4_3 0
I_4_4 99
I_4_5 99
I_4_6 0
I_5_0 160
I_5_1 80
I_5_2 0
I_5_3 160
I_5_4 160
I_5_5 7.9999999999999957e+01
I_5_6 0
I_6_0 21
I_6_1 0
I_6_2 21
I_6_3 0
I_6_4 21
I_6_5 21
I_6_6 0
I_7_0 64
I_7_1 32
I_7_2 0
I_7_3 64
I_7_4 64
I_7_5 3.1999999999999964e+01
I_7_6 0
I_8_0 61
I_8_1 0
I_8_2 61
I_8_3 0
I_8_4 61
I_8_5 61
I_8_6 0
I_9_0 110
I_9_1 55
I_9_2 0
I_9_3 110
I_9_4 110
I_9_5 5.4999999999999972e+01
I_9_6 0
I_10_0 14
I_10_1 0
I_10_2 14
I_10_3 0
I_10_4 14
I_10_5 14
I_10_6 0
q_1_0 0
q_1_1 78
q_1_2 0
q_1_3 0
q_1_4 1.1699999999999997e+02
q_1_5 0
q_2_0 0
q_2_1 22
q_2_2 0
q_2_3 0
q_2_4 33
q_2_5 0
q_3_0 0
q_3_1 0
q_3_2 189
q_3_3 63
q_3_4 0
q_3_5 0
q_4_0 0
q_4_1 198
q_4_2 0
q_4_3 198
q_4_4 99
q_4_5 0
q_5_0 0
q_5_1 0
q_5_2 240
q_5_3 80
q_5_4 0
q_5_5 0
q_6_0 0
q_6_1 42
q_6_2 0
q_6_3 42
q_6_4 21
q_6_5 0
q_7_0 0
q_7_1 0
q_7_2 96
q_7_3 32
q_7_4 0
q_7_5 0
q_8_0 0
q_8_1 122
q_8_2 0
q_8_3 122
q_8_4 61
q_8_5 0
q_9_0 0
q_9_1 0
q_9_2 165
q_9_3 55
q_9_4 0
q_9_5 0
q_10_0 0
q_10_1 28
q_10_2 0
q_10_3 28
q_10_4 14
q_10_5 0
y_0_0 0
y_0_1 1
y_0_2 1
y_0_3 1
y_0_4 1
y_0_5 0
y_1_0 0
y_1_1 1
y_1_2 0
y_1_3 0
y_1_4 1
y_1_5 0
y_2_0 0
y_2_1 1
y_2_2 0
y_2_3 0
y_2_4 1
y_2_5 0
y_3_0 0
y_3_1 0
y_3_2 1
y_3_3 1
y_3_4 0
y_3_5 0
y_4_0 0
y_4_1 1
y_4_2 0
y_4_3 1
y_4_4 1
y_4_5 0
y_5_0 0
y_5_1 0
y_5_2 1
y_5_3 1
y_5_4 0
y_5_5 0
y_6_0 0
y_6_1 1
y_6_2 0
y_6_3 1
y_6_4 1
y_6_5 0
y_7_0 0
y_7_1 0
y_7_2 1
y_7_3 1
y_7_4 0
y_7_5 0
y_8_0 0
y_8_1 1
y_8_2 0
y_8_3 1
y_8_4 1
y_8_5 0
y_9_0 0
y_9_1 0
y_9_2 1
y_9_3 1
y_9_4 0
y_9_5 0
y_10_0 0
y_10_1 1
y_10_2 0
y_10_3 1
y_10_4 1
y_10_5 0
x_0_1_0 0
x_0_1_1 0
x_0_1_2 0
x_0_1_3 0
x_0_1_4 0
x_0_1_5 0
x_0_2_0 0
x_0_2_1 0
x_0_2_2 0
x_0_2_3 0
x_0_2_4 0
x_0_2_5 0
x_0_3_0 0
x_0_3_1 0
x_0_3_2 1
x_0_3_3 1
x_0_3_4 0
x_0_3_5 0
x_0_4_0 0
x_0_4_1 0
x_0_4_2 0
x_0_4_3 0
x_0_4_4 0
x_0_4_5 0
x_0_5_0 0
x_0_5_1 0
x_0_5_2 0
x_0_5_3 0
x_0_5_4 0
x_0_5_5 0
x_0_6_0 0
x_0_6_1 1
x_0_6_2 0
x_0_6_3 1
x_0_6_4 1
x_0_6_5 0
x_0_7_0 0
x_0_7_1 0
x_0_7_2 0
x_0_7_3 0
x_0_7_4 0
x_0_7_5 0
x_0_8_0 0
x_0_8_1 0
x_0_8_2 0
x_0_8_3 0
x_0_8_4 0
x_0_8_5 0
x_0_9_0 0
x_0_9_1 0
x_0_9_2 1
x_0_9_3 0
x_0_9_4 0
x_0_9_5 0
x_0_10_0 0
x_0_10_1 1
x_0_10_2 0
x_0_10_3 0
x_0_10_4 1
x_0_10_5 0
x_1_2_0 0
x_1_2_1 0
x_1_2_2 0
x_1_2_3 0
x_1_2_4 0
x_1_2_5 0
x_1_3_0 0
x_1_3_1 0
x_1_3_2 0
x_1_3_3 0
x_1_3_4 0
x_1_3_5 0
x_1_4_0 0
x_1_4_1 0
x_1_4_2 0
x_1_4_3 0
x_1_4_4 0
x_1_4_5 0
x_1_5_0 0
x_1_5_1 0
x_1_5_2 0
x_1_5_3 0
x_1_5_4 0
x_1_5_5 0
x_1_6_0 0
x_1_6_1 1
x_1_6_2 0
x_1_6_3 0
x_1_6_4 1
x_1_6_5 0
x_1_7_0 0
x_1_7_1 0
x_1_7_2 0
x_1_7_3 0
x_1_7_4 0
x_1_7_5 0
x_1_8_0 0
x_1_8_1 1
x_1_8_2 0
x_1_8_3 0
x_1_8_4 1
x_1_8_5 0
x_1_9_0 0
x_1_9_1 0
x_1_9_2 0
x_1_9_3 0
x_1_9_4 0
x_1_9_5 0
x_1_10_0 0
x_1_10_1 0
x_1_10_2 0
x_1_10_3 0
x_1_10_4 0
x_1_10_5 0
x_2_3_0 0
x_2_3_1 0
x_2_3_2 0
x_2_3_3 0
x_2_3_4 0
x_2_3_5 0
x_2_4_0 0
x_2_4_1 1
x_2_4_2 0
x_2_4_3 0
x_2_4_4 1
x_2_4_5 0
x_2_5_0 0
x_2_5_1 0
x_2_5_2 0
x_2_5_3 0
x_2_5_4 0
x_2_5_5 0
x_2_6_0 0
x_2_6_1 0
x_2_6_2 0
x_2_6_3 0
x_2_6_4 0
x_2_6_5 0
x_2_7_0 0
x_2_7_1 0
x_2_7_2 0
x_2_7_3 0
x_2_7_4 0
x_2_7_5 0
x_2_8_0 0
x_2_8_1 0
x_2_8_2 0
x_2_8_3 0
x_2_8_4 0
x_2_8_5 0
x_2_9_0 0
x_2_9_1 0
x_2_9_2 0
x_2_9_3 0
x_2_9_4 0
x_2_9_5 0
x_2_10_0 0
x_2_10_1 1
x_2_10_2 0
x_2_10_3 0
x_2_10_4 1
x_2_10_5 0
x_3_4_0 0
x_3_4_1 0
x_3_4_2 0
x_3_4_3 0
x_3_4_4 0
x_3_4_5 0
x_3_5_0 0
x_3_5_1 0
x_3_5_2 1
x_3_5_3 1
x_3_5_4 0
x_3_5_5 0
x_3_6_0 0
x_3_6_1 0
x_3_6_2 0
x_3_6_3 0
x_3_6_4 0
x_3_6_5 0
x_3_7_0 0
x_3_7_1 0
x_3_7_2 0
x_3_7_3 0
x_3_7_4 0
x_3_7_5 0
x_3_8_0 0
x_3_8_1 0
x_3_8_2 0
x_3_8_3 0
x_3_8_4 0
x_3_8_5 0
x_3_9_0 0
x_3_9_1 0
x_3_9_2 0
x_3_9_3 0
x_3_9_4 0
x_3_9_5 0
x_3_10_0 0
x_3_10_1 0
x_3_10_2 0
x_3_10_3 0
x_3_10_4 0
x_3_10_5 0
x_4_5_0 0
x_4_5_1 0
x_4_5_2 0
x_4_5_3 0
x_4_5_4 0
x_4_5_5 0
x_4_6_0 0
x_4_6_1 0
x_4_6_2 0
x_4_6_3 0
x_4_6_4 0
x_4_6_5 0
x_4_7_0 0
x_4_7_1 0
x_4_7_2 0
x_4_7_3 0
x_4_7_4 0
x_4_7_5 0
x_4_8_0 0
x_4_8_1 1
x_4_8_2 0
x_4_8_3 1
x_4_8_4 1
x_4_8_5 0
x_4_9_0 0
x_4_9_1 0
x_4_9_2 0
x_4_9_3 0
x_4_9_4 0
x_4_9_5 0
x_4_10_0 0
x_4_10_1 0
x_4_10_2 0
x_4_10_3 1
x_4_10_4 0
x_4_10_5 0
x_5_6_0 0
x_5_6_1 0
x_5_6_2 0
x_5_6_3 0
x_5_6_4 0
x_5_6_5 0
x_5_7_0 0
x_5_7_1 0
x_5_7_2 1
x_5_7_3 1
x_5_7_4 0
x_5_7_5 0
x_5_8_0 0
x_5_8_1 0
x_5_8_2 0
x_5_8_3 0
x_5_8_4 0
x_5_8_5 0
x_5_9_0 0
x_5_9_1 0
x_5_9_2 0
x_5_9_3 0
x_5_9_4 0
x_5_9_5 0
x_5_10_0 0
x_5_10_1 0
x_5_10_2 0
x_5_10_3 0
x_5_10_4 0
x_5_10_5 0
x_6_7_0 0
x_6_7_1 0
x_6_7_2 0
x_6_7_3 0
x_6_7_4 0
x_6_7_5 0
x_6_8_0 0
x_6_8_1 0
x_6_8_2 0
x_6_8_3 1
x_6_8_4 0
x_6_8_5 0
x_6_9_0 0
x_6_9_1 0
x_6_9_2 0
x_6_9_3 0
x_6_9_4 0
x_6_9_5 0
x_6_10_0 0
x_6_10_1 0
x_6_10_2 0
x_6_10_3 0
x_6_10_4 0
x_6_10_5 0
x_7_8_0 0
x_7_8_1 0
x_7_8_2 0
x_7_8_3 0
x_7_8_4 0
x_7_8_5 0
x_7_9_0 0
x_7_9_1 0
x_7_9_2 1
x_7_9_3 1
x_7_9_4 0
x_7_9_5 0
x_7_10_0 0
x_7_10_1 0
x_7_10_2 0
x_7_10_3 0
x_7_10_4 0
x_7_10_5 0
x_8_9_0 0
x_8_9_1 0
x_8_9_2 0
x_8_9_3 0
x_8_9_4 0
x_8_9_5 0
x_8_10_0 0
x_8_10_1 0
x_8_10_2 0
x_8_10_3 0
x_8_10_4 0
x_8_10_5 0
x_9_10_0 0
x_9_10_1 0
x_9_10_2 0
x_9_10_3 1
x_9_10_4 0
x_9_10_5 0
